p tdp 20 68
1 2
1 6
1 10
1 17
1 18
1 20
2 14
2 20
3 5
3 7
3 9
3 15
3 20
4 5
4 6
4 9
4 11
4 15
4 16
4 17
5 8
5 10
5 12
5 13
5 14
5 16
5 19
5 20
6 7
6 11
6 13
6 16
6 17
6 19
7 8
7 10
7 16
7 18
8 9
8 11
8 14
8 15
8 17
9 10
9 11
9 12
9 17
10 14
10 15
10 18
10 19
11 13
11 14
11 18
11 20
12 17
12 19
13 16
13 17
13 18
13 19
14 15
14 17
14 20
15 16
15 17
17 18
17 19
